1500
4
329, 666, 238, 593, 144, 142, 716, 69, 259, 183, 662, 536, 77, 608, 405, 113, 300, 589, 606, 148, 596, 102, 396, 14, 634, 620, 429, 255, 358, 358, 251, 347, 439, 478, 704, 358, 347, 425, 147, 460, 215, 223, 750, 522, 567, 297, 197, 436, 530, 280
50, 66, 36, 11, 34, 45, 65, 76, 58, 24, 83, 98, 79, 73, 1, 2, 7, 39, 23, 55, 50, 81, 61, 33, 22, 85, 16, 82, 18, 85, 37, 0, 70, 46, 47, 73, 15, 85, 25, 90, 98, 46, 15, 22, 66, 76, 97, 66, 67, 56
4, 4, 3, 2, 4, 4, 4, 2, 3, 1, 2, 3, 3, 2, 4, 1, 4, 2, 1, 1, 3, 1, 3, 3, 1, 3, 2, 1, 3, 2, 2, 3, 3, 4, 4, 2, 4, 4, 3, 4, 3, 1, 4, 1, 3, 3, 4, 4, 2, 3